c description: Tseitin formula on , with even charge
c generator: CNFgen (0.9.0)
c copyright: (C) 2012-2020 Massimo Lauria <massimo.lauria@uniroma1.it>
c url: https://massimolauria.net/cnfgen
c
p cnf 20 155
1 2 3 4 -5 0
1 2 3 -4 5 0
1 2 -3 4 5 0
1 2 -3 -4 -5 0
1 -2 3 4 5 0
1 -2 3 -4 -5 0
1 -2 -3 4 -5 0
1 -2 -3 -4 5 0
-1 2 3 4 5 0
-1 2 3 -4 -5 0
-1 2 -3 4 -5 0
-1 2 -3 -4 5 0
-1 -2 3 4 -5 0
-1 -2 3 -4 5 0
-1 -2 -3 4 5 0
-1 -2 -3 -4 -5 0
6 7 8 -9 0
6 7 -8 9 0
6 -7 8 9 0
6 -7 -8 -9 0
-6 7 8 9 0
-6 7 -8 -9 0
-6 -7 8 -9 0
-6 -7 -8 9 0
10 -11 0
-10 11 0
1 12 -13 0
1 -12 13 0
-1 12 13 0
-1 -12 -13 0
2 10 14 15 -16 0
2 10 14 -15 16 0
2 10 -14 15 16 0
2 10 -14 -15 -16 0
2 -10 14 15 16 0
2 -10 14 -15 -16 0
2 -10 -14 15 -16 0
2 -10 -14 -15 16 0
-2 10 14 15 16 0
-2 10 14 -15 -16 0
-2 10 -14 15 -16 0
-2 10 -14 -15 16 0
-2 -10 14 15 -16 0
-2 -10 14 -15 16 0
-2 -10 -14 15 16 0
-2 -10 -14 -15 -16 0
3 6 -12 0
3 -6 12 0
-3 6 12 0
-3 -6 -12 0
4 7 11 14 17 18 -19 0
4 7 11 14 17 -18 19 0
4 7 11 14 -17 18 19 0
4 7 11 14 -17 -18 -19 0
4 7 11 -14 17 18 19 0
4 7 11 -14 17 -18 -19 0
4 7 11 -14 -17 18 -19 0
4 7 11 -14 -17 -18 19 0
4 7 -11 14 17 18 19 0
4 7 -11 14 17 -18 -19 0
4 7 -11 14 -17 18 -19 0
4 7 -11 14 -17 -18 19 0
4 7 -11 -14 17 18 -19 0
4 7 -11 -14 17 -18 19 0
4 7 -11 -14 -17 18 19 0
4 7 -11 -14 -17 -18 -19 0
4 -7 11 14 17 18 19 0
4 -7 11 14 17 -18 -19 0
4 -7 11 14 -17 18 -19 0
4 -7 11 14 -17 -18 19 0
4 -7 11 -14 17 18 -19 0
4 -7 11 -14 17 -18 19 0
4 -7 11 -14 -17 18 19 0
4 -7 11 -14 -17 -18 -19 0
4 -7 -11 14 17 18 -19 0
4 -7 -11 14 17 -18 19 0
4 -7 -11 14 -17 18 19 0
4 -7 -11 14 -17 -18 -19 0
4 -7 -11 -14 17 18 19 0
4 -7 -11 -14 17 -18 -19 0
4 -7 -11 -14 -17 18 -19 0
4 -7 -11 -14 -17 -18 19 0
-4 7 11 14 17 18 19 0
-4 7 11 14 17 -18 -19 0
-4 7 11 14 -17 18 -19 0
-4 7 11 14 -17 -18 19 0
-4 7 11 -14 17 18 -19 0
-4 7 11 -14 17 -18 19 0
-4 7 11 -14 -17 18 19 0
-4 7 11 -14 -17 -18 -19 0
-4 7 -11 14 17 18 -19 0
-4 7 -11 14 17 -18 19 0
-4 7 -11 14 -17 18 19 0
-4 7 -11 14 -17 -18 -19 0
-4 7 -11 -14 17 18 19 0
-4 7 -11 -14 17 -18 -19 0
-4 7 -11 -14 -17 18 -19 0
-4 7 -11 -14 -17 -18 19 0
-4 -7 11 14 17 18 -19 0
-4 -7 11 14 17 -18 19 0
-4 -7 11 14 -17 18 19 0
-4 -7 11 14 -17 -18 -19 0
-4 -7 11 -14 17 18 19 0
-4 -7 11 -14 17 -18 -19 0
-4 -7 11 -14 -17 18 -19 0
-4 -7 11 -14 -17 -18 19 0
-4 -7 -11 14 17 18 19 0
-4 -7 -11 14 17 -18 -19 0
-4 -7 -11 14 -17 18 -19 0
-4 -7 -11 14 -17 -18 19 0
-4 -7 -11 -14 17 18 -19 0
-4 -7 -11 -14 17 -18 19 0
-4 -7 -11 -14 -17 18 19 0
-4 -7 -11 -14 -17 -18 -19 0
8 15 17 -20 0
8 15 -17 20 0
8 -15 17 20 0
8 -15 -17 -20 0
-8 15 17 20 0
-8 15 -17 -20 0
-8 -15 17 -20 0
-8 -15 -17 20 0
5 9 13 16 18 -20 0
5 9 13 16 -18 20 0
5 9 13 -16 18 20 0
5 9 13 -16 -18 -20 0
5 9 -13 16 18 20 0
5 9 -13 16 -18 -20 0
5 9 -13 -16 18 -20 0
5 9 -13 -16 -18 20 0
5 -9 13 16 18 20 0
5 -9 13 16 -18 -20 0
5 -9 13 -16 18 -20 0
5 -9 13 -16 -18 20 0
5 -9 -13 16 18 -20 0
5 -9 -13 16 -18 20 0
5 -9 -13 -16 18 20 0
5 -9 -13 -16 -18 -20 0
-5 9 13 16 18 20 0
-5 9 13 16 -18 -20 0
-5 9 13 -16 18 -20 0
-5 9 13 -16 -18 20 0
-5 9 -13 16 18 -20 0
-5 9 -13 16 -18 20 0
-5 9 -13 -16 18 20 0
-5 9 -13 -16 -18 -20 0
-5 -9 13 16 18 -20 0
-5 -9 13 16 -18 20 0
-5 -9 13 -16 18 20 0
-5 -9 13 -16 -18 -20 0
-5 -9 -13 16 18 20 0
-5 -9 -13 16 -18 -20 0
-5 -9 -13 -16 18 -20 0
-5 -9 -13 -16 -18 20 0
-19 0